
p cnf 200 2858
-1 -2 0
-1 -3 0
-2 -3 0
-1 -4 0
-2 -4 0
-3 -4 0
-1 -5 0
-2 -5 0
-3 -5 0
-4 -5 0
-2 -3 0
-2 -4 0
-3 -4 0
-2 -5 0
-3 -5 0
-4 -5 0
-2 -6 0
-3 -6 0
-4 -6 0
-5 -6 0
-3 -4 0
-3 -5 0
-4 -5 0
-3 -6 0
-4 -6 0
-5 -6 0
-3 -7 0
-4 -7 0
-5 -7 0
-6 -7 0
-4 -5 0
-4 -6 0
-5 -6 0
-4 -7 0
-5 -7 0
-6 -7 0
-4 -8 0
-5 -8 0
-6 -8 0
-7 -8 0
-5 -6 0
-5 -7 0
-6 -7 0
-5 -8 0
-6 -8 0
-7 -8 0
-5 -9 0
-6 -9 0
-7 -9 0
-8 -9 0
-6 -7 0
-6 -8 0
-7 -8 0
-6 -9 0
-7 -9 0
-8 -9 0
-6 -10 0
-7 -10 0
-8 -10 0
-9 -10 0
-7 -8 0
-7 -9 0
-8 -9 0
-7 -10 0
-8 -10 0
-9 -10 0
-7 -11 0
-8 -11 0
-9 -11 0
-10 -11 0
-8 -9 0
-8 -10 0
-9 -10 0
-8 -11 0
-9 -11 0
-10 -11 0
-8 -12 0
-9 -12 0
-10 -12 0
-11 -12 0
-9 -10 0
-9 -11 0
-10 -11 0
-9 -12 0
-10 -12 0
-11 -12 0
-9 -13 0
-10 -13 0
-11 -13 0
-12 -13 0
-10 -11 0
-10 -12 0
-11 -12 0
-10 -13 0
-11 -13 0
-12 -13 0
-10 -14 0
-11 -14 0
-12 -14 0
-13 -14 0
-11 -12 0
-11 -13 0
-12 -13 0
-11 -14 0
-12 -14 0
-13 -14 0
-11 -15 0
-12 -15 0
-13 -15 0
-14 -15 0
-12 -13 0
-12 -14 0
-13 -14 0
-12 -15 0
-13 -15 0
-14 -15 0
-12 -16 0
-13 -16 0
-14 -16 0
-15 -16 0
-13 -14 0
-13 -15 0
-14 -15 0
-13 -16 0
-14 -16 0
-15 -16 0
-13 -17 0
-14 -17 0
-15 -17 0
-16 -17 0
-14 -15 0
-14 -16 0
-15 -16 0
-14 -17 0
-15 -17 0
-16 -17 0
-14 -18 0
-15 -18 0
-16 -18 0
-17 -18 0
-15 -16 0
-15 -17 0
-16 -17 0
-15 -18 0
-16 -18 0
-17 -18 0
-15 -19 0
-16 -19 0
-17 -19 0
-18 -19 0
-16 -17 0
-16 -18 0
-17 -18 0
-16 -19 0
-17 -19 0
-18 -19 0
-16 -20 0
-17 -20 0
-18 -20 0
-19 -20 0
-17 -18 0
-17 -19 0
-18 -19 0
-17 -20 0
-18 -20 0
-19 -20 0
-17 -21 0
-18 -21 0
-19 -21 0
-20 -21 0
-18 -19 0
-18 -20 0
-19 -20 0
-18 -21 0
-19 -21 0
-20 -21 0
-18 -22 0
-19 -22 0
-20 -22 0
-21 -22 0
-19 -20 0
-19 -21 0
-20 -21 0
-19 -22 0
-20 -22 0
-21 -22 0
-19 -23 0
-20 -23 0
-21 -23 0
-22 -23 0
-20 -21 0
-20 -22 0
-21 -22 0
-20 -23 0
-21 -23 0
-22 -23 0
-20 -24 0
-21 -24 0
-22 -24 0
-23 -24 0
-21 -22 0
-21 -23 0
-22 -23 0
-21 -24 0
-22 -24 0
-23 -24 0
-21 -25 0
-22 -25 0
-23 -25 0
-24 -25 0
-22 -23 0
-22 -24 0
-23 -24 0
-22 -25 0
-23 -25 0
-24 -25 0
-22 -26 0
-23 -26 0
-24 -26 0
-25 -26 0
-23 -24 0
-23 -25 0
-24 -25 0
-23 -26 0
-24 -26 0
-25 -26 0
-23 -27 0
-24 -27 0
-25 -27 0
-26 -27 0
-24 -25 0
-24 -26 0
-25 -26 0
-24 -27 0
-25 -27 0
-26 -27 0
-24 -28 0
-25 -28 0
-26 -28 0
-27 -28 0
-25 -26 0
-25 -27 0
-26 -27 0
-25 -28 0
-26 -28 0
-27 -28 0
-25 -29 0
-26 -29 0
-27 -29 0
-28 -29 0
-26 -27 0
-26 -28 0
-27 -28 0
-26 -29 0
-27 -29 0
-28 -29 0
-26 -30 0
-27 -30 0
-28 -30 0
-29 -30 0
-27 -28 0
-27 -29 0
-28 -29 0
-27 -30 0
-28 -30 0
-29 -30 0
-27 -31 0
-28 -31 0
-29 -31 0
-30 -31 0
-28 -29 0
-28 -30 0
-29 -30 0
-28 -31 0
-29 -31 0
-30 -31 0
-28 -32 0
-29 -32 0
-30 -32 0
-31 -32 0
-29 -30 0
-29 -31 0
-30 -31 0
-29 -32 0
-30 -32 0
-31 -32 0
-29 -33 0
-30 -33 0
-31 -33 0
-32 -33 0
-30 -31 0
-30 -32 0
-31 -32 0
-30 -33 0
-31 -33 0
-32 -33 0
-30 -34 0
-31 -34 0
-32 -34 0
-33 -34 0
-31 -32 0
-31 -33 0
-32 -33 0
-31 -34 0
-32 -34 0
-33 -34 0
-31 -35 0
-32 -35 0
-33 -35 0
-34 -35 0
-32 -33 0
-32 -34 0
-33 -34 0
-32 -35 0
-33 -35 0
-34 -35 0
-32 -36 0
-33 -36 0
-34 -36 0
-35 -36 0
-33 -34 0
-33 -35 0
-34 -35 0
-33 -36 0
-34 -36 0
-35 -36 0
-33 -37 0
-34 -37 0
-35 -37 0
-36 -37 0
-34 -35 0
-34 -36 0
-35 -36 0
-34 -37 0
-35 -37 0
-36 -37 0
-34 -38 0
-35 -38 0
-36 -38 0
-37 -38 0
-35 -36 0
-35 -37 0
-36 -37 0
-35 -38 0
-36 -38 0
-37 -38 0
-35 -39 0
-36 -39 0
-37 -39 0
-38 -39 0
-36 -37 0
-36 -38 0
-37 -38 0
-36 -39 0
-37 -39 0
-38 -39 0
-36 -40 0
-37 -40 0
-38 -40 0
-39 -40 0
-37 -38 0
-37 -39 0
-38 -39 0
-37 -40 0
-38 -40 0
-39 -40 0
-37 -41 0
-38 -41 0
-39 -41 0
-40 -41 0
-38 -39 0
-38 -40 0
-39 -40 0
-38 -41 0
-39 -41 0
-40 -41 0
-38 -42 0
-39 -42 0
-40 -42 0
-41 -42 0
-39 -40 0
-39 -41 0
-40 -41 0
-39 -42 0
-40 -42 0
-41 -42 0
-39 -43 0
-40 -43 0
-41 -43 0
-42 -43 0
-40 -41 0
-40 -42 0
-41 -42 0
-40 -43 0
-41 -43 0
-42 -43 0
-40 -44 0
-41 -44 0
-42 -44 0
-43 -44 0
-41 -42 0
-41 -43 0
-42 -43 0
-41 -44 0
-42 -44 0
-43 -44 0
-41 -45 0
-42 -45 0
-43 -45 0
-44 -45 0
-42 -43 0
-42 -44 0
-43 -44 0
-42 -45 0
-43 -45 0
-44 -45 0
-42 -46 0
-43 -46 0
-44 -46 0
-45 -46 0
-43 -44 0
-43 -45 0
-44 -45 0
-43 -46 0
-44 -46 0
-45 -46 0
-43 -47 0
-44 -47 0
-45 -47 0
-46 -47 0
-44 -45 0
-44 -46 0
-45 -46 0
-44 -47 0
-45 -47 0
-46 -47 0
-44 -48 0
-45 -48 0
-46 -48 0
-47 -48 0
-45 -46 0
-45 -47 0
-46 -47 0
-45 -48 0
-46 -48 0
-47 -48 0
-45 -49 0
-46 -49 0
-47 -49 0
-48 -49 0
-46 -47 0
-46 -48 0
-47 -48 0
-46 -49 0
-47 -49 0
-48 -49 0
-46 -50 0
-47 -50 0
-48 -50 0
-49 -50 0
-47 -48 0
-47 -49 0
-48 -49 0
-47 -50 0
-48 -50 0
-49 -50 0
-47 -51 0
-48 -51 0
-49 -51 0
-50 -51 0
-48 -49 0
-48 -50 0
-49 -50 0
-48 -51 0
-49 -51 0
-50 -51 0
-48 -52 0
-49 -52 0
-50 -52 0
-51 -52 0
-49 -50 0
-49 -51 0
-50 -51 0
-49 -52 0
-50 -52 0
-51 -52 0
-49 -53 0
-50 -53 0
-51 -53 0
-52 -53 0
-50 -51 0
-50 -52 0
-51 -52 0
-50 -53 0
-51 -53 0
-52 -53 0
-50 -54 0
-51 -54 0
-52 -54 0
-53 -54 0
-51 -52 0
-51 -53 0
-52 -53 0
-51 -54 0
-52 -54 0
-53 -54 0
-51 -55 0
-52 -55 0
-53 -55 0
-54 -55 0
-52 -53 0
-52 -54 0
-53 -54 0
-52 -55 0
-53 -55 0
-54 -55 0
-52 -56 0
-53 -56 0
-54 -56 0
-55 -56 0
-53 -54 0
-53 -55 0
-54 -55 0
-53 -56 0
-54 -56 0
-55 -56 0
-53 -57 0
-54 -57 0
-55 -57 0
-56 -57 0
-54 -55 0
-54 -56 0
-55 -56 0
-54 -57 0
-55 -57 0
-56 -57 0
-54 -58 0
-55 -58 0
-56 -58 0
-57 -58 0
-55 -56 0
-55 -57 0
-56 -57 0
-55 -58 0
-56 -58 0
-57 -58 0
-55 -59 0
-56 -59 0
-57 -59 0
-58 -59 0
-56 -57 0
-56 -58 0
-57 -58 0
-56 -59 0
-57 -59 0
-58 -59 0
-56 -60 0
-57 -60 0
-58 -60 0
-59 -60 0
-57 -58 0
-57 -59 0
-58 -59 0
-57 -60 0
-58 -60 0
-59 -60 0
-57 -61 0
-58 -61 0
-59 -61 0
-60 -61 0
-58 -59 0
-58 -60 0
-59 -60 0
-58 -61 0
-59 -61 0
-60 -61 0
-58 -62 0
-59 -62 0
-60 -62 0
-61 -62 0
-59 -60 0
-59 -61 0
-60 -61 0
-59 -62 0
-60 -62 0
-61 -62 0
-59 -63 0
-60 -63 0
-61 -63 0
-62 -63 0
-60 -61 0
-60 -62 0
-61 -62 0
-60 -63 0
-61 -63 0
-62 -63 0
-60 -64 0
-61 -64 0
-62 -64 0
-63 -64 0
-61 -62 0
-61 -63 0
-62 -63 0
-61 -64 0
-62 -64 0
-63 -64 0
-61 -65 0
-62 -65 0
-63 -65 0
-64 -65 0
-62 -63 0
-62 -64 0
-63 -64 0
-62 -65 0
-63 -65 0
-64 -65 0
-62 -66 0
-63 -66 0
-64 -66 0
-65 -66 0
-63 -64 0
-63 -65 0
-64 -65 0
-63 -66 0
-64 -66 0
-65 -66 0
-63 -67 0
-64 -67 0
-65 -67 0
-66 -67 0
-64 -65 0
-64 -66 0
-65 -66 0
-64 -67 0
-65 -67 0
-66 -67 0
-64 -68 0
-65 -68 0
-66 -68 0
-67 -68 0
-65 -66 0
-65 -67 0
-66 -67 0
-65 -68 0
-66 -68 0
-67 -68 0
-65 -69 0
-66 -69 0
-67 -69 0
-68 -69 0
-66 -67 0
-66 -68 0
-67 -68 0
-66 -69 0
-67 -69 0
-68 -69 0
-66 -70 0
-67 -70 0
-68 -70 0
-69 -70 0
-67 -68 0
-67 -69 0
-68 -69 0
-67 -70 0
-68 -70 0
-69 -70 0
-67 -71 0
-68 -71 0
-69 -71 0
-70 -71 0
-68 -69 0
-68 -70 0
-69 -70 0
-68 -71 0
-69 -71 0
-70 -71 0
-68 -72 0
-69 -72 0
-70 -72 0
-71 -72 0
-69 -70 0
-69 -71 0
-70 -71 0
-69 -72 0
-70 -72 0
-71 -72 0
-69 -73 0
-70 -73 0
-71 -73 0
-72 -73 0
-70 -71 0
-70 -72 0
-71 -72 0
-70 -73 0
-71 -73 0
-72 -73 0
-70 -74 0
-71 -74 0
-72 -74 0
-73 -74 0
-71 -72 0
-71 -73 0
-72 -73 0
-71 -74 0
-72 -74 0
-73 -74 0
-71 -75 0
-72 -75 0
-73 -75 0
-74 -75 0
-72 -73 0
-72 -74 0
-73 -74 0
-72 -75 0
-73 -75 0
-74 -75 0
-72 -76 0
-73 -76 0
-74 -76 0
-75 -76 0
-73 -74 0
-73 -75 0
-74 -75 0
-73 -76 0
-74 -76 0
-75 -76 0
-73 -77 0
-74 -77 0
-75 -77 0
-76 -77 0
-74 -75 0
-74 -76 0
-75 -76 0
-74 -77 0
-75 -77 0
-76 -77 0
-74 -78 0
-75 -78 0
-76 -78 0
-77 -78 0
-75 -76 0
-75 -77 0
-76 -77 0
-75 -78 0
-76 -78 0
-77 -78 0
-75 -79 0
-76 -79 0
-77 -79 0
-78 -79 0
-76 -77 0
-76 -78 0
-77 -78 0
-76 -79 0
-77 -79 0
-78 -79 0
-76 -80 0
-77 -80 0
-78 -80 0
-79 -80 0
-77 -78 0
-77 -79 0
-78 -79 0
-77 -80 0
-78 -80 0
-79 -80 0
-77 -81 0
-78 -81 0
-79 -81 0
-80 -81 0
-78 -79 0
-78 -80 0
-79 -80 0
-78 -81 0
-79 -81 0
-80 -81 0
-78 -82 0
-79 -82 0
-80 -82 0
-81 -82 0
-79 -80 0
-79 -81 0
-80 -81 0
-79 -82 0
-80 -82 0
-81 -82 0
-79 -83 0
-80 -83 0
-81 -83 0
-82 -83 0
-80 -81 0
-80 -82 0
-81 -82 0
-80 -83 0
-81 -83 0
-82 -83 0
-80 -84 0
-81 -84 0
-82 -84 0
-83 -84 0
-81 -82 0
-81 -83 0
-82 -83 0
-81 -84 0
-82 -84 0
-83 -84 0
-81 -85 0
-82 -85 0
-83 -85 0
-84 -85 0
-82 -83 0
-82 -84 0
-83 -84 0
-82 -85 0
-83 -85 0
-84 -85 0
-82 -86 0
-83 -86 0
-84 -86 0
-85 -86 0
-83 -84 0
-83 -85 0
-84 -85 0
-83 -86 0
-84 -86 0
-85 -86 0
-83 -87 0
-84 -87 0
-85 -87 0
-86 -87 0
-84 -85 0
-84 -86 0
-85 -86 0
-84 -87 0
-85 -87 0
-86 -87 0
-84 -88 0
-85 -88 0
-86 -88 0
-87 -88 0
-85 -86 0
-85 -87 0
-86 -87 0
-85 -88 0
-86 -88 0
-87 -88 0
-85 -89 0
-86 -89 0
-87 -89 0
-88 -89 0
-86 -87 0
-86 -88 0
-87 -88 0
-86 -89 0
-87 -89 0
-88 -89 0
-86 -90 0
-87 -90 0
-88 -90 0
-89 -90 0
-87 -88 0
-87 -89 0
-88 -89 0
-87 -90 0
-88 -90 0
-89 -90 0
-87 -91 0
-88 -91 0
-89 -91 0
-90 -91 0
-88 -89 0
-88 -90 0
-89 -90 0
-88 -91 0
-89 -91 0
-90 -91 0
-88 -92 0
-89 -92 0
-90 -92 0
-91 -92 0
-89 -90 0
-89 -91 0
-90 -91 0
-89 -92 0
-90 -92 0
-91 -92 0
-89 -93 0
-90 -93 0
-91 -93 0
-92 -93 0
-90 -91 0
-90 -92 0
-91 -92 0
-90 -93 0
-91 -93 0
-92 -93 0
-90 -94 0
-91 -94 0
-92 -94 0
-93 -94 0
-91 -92 0
-91 -93 0
-92 -93 0
-91 -94 0
-92 -94 0
-93 -94 0
-91 -95 0
-92 -95 0
-93 -95 0
-94 -95 0
-92 -93 0
-92 -94 0
-93 -94 0
-92 -95 0
-93 -95 0
-94 -95 0
-92 -96 0
-93 -96 0
-94 -96 0
-95 -96 0
-93 -94 0
-93 -95 0
-94 -95 0
-93 -96 0
-94 -96 0
-95 -96 0
-93 -97 0
-94 -97 0
-95 -97 0
-96 -97 0
-94 -95 0
-94 -96 0
-95 -96 0
-94 -97 0
-95 -97 0
-96 -97 0
-94 -98 0
-95 -98 0
-96 -98 0
-97 -98 0
-95 -96 0
-95 -97 0
-96 -97 0
-95 -98 0
-96 -98 0
-97 -98 0
-95 -99 0
-96 -99 0
-97 -99 0
-98 -99 0
-96 -97 0
-96 -98 0
-97 -98 0
-96 -99 0
-97 -99 0
-98 -99 0
-96 -100 0
-97 -100 0
-98 -100 0
-99 -100 0
-97 -98 0
-97 -99 0
-98 -99 0
-97 -100 0
-98 -100 0
-99 -100 0
-97 -101 0
-98 -101 0
-99 -101 0
-100 -101 0
-98 -99 0
-98 -100 0
-99 -100 0
-98 -101 0
-99 -101 0
-100 -101 0
-98 -102 0
-99 -102 0
-100 -102 0
-101 -102 0
-99 -100 0
-99 -101 0
-100 -101 0
-99 -102 0
-100 -102 0
-101 -102 0
-99 -103 0
-100 -103 0
-101 -103 0
-102 -103 0
-100 -101 0
-100 -102 0
-101 -102 0
-100 -103 0
-101 -103 0
-102 -103 0
-100 -104 0
-101 -104 0
-102 -104 0
-103 -104 0
-101 -102 0
-101 -103 0
-102 -103 0
-101 -104 0
-102 -104 0
-103 -104 0
-101 -105 0
-102 -105 0
-103 -105 0
-104 -105 0
-102 -103 0
-102 -104 0
-103 -104 0
-102 -105 0
-103 -105 0
-104 -105 0
-102 -106 0
-103 -106 0
-104 -106 0
-105 -106 0
-103 -104 0
-103 -105 0
-104 -105 0
-103 -106 0
-104 -106 0
-105 -106 0
-103 -107 0
-104 -107 0
-105 -107 0
-106 -107 0
-104 -105 0
-104 -106 0
-105 -106 0
-104 -107 0
-105 -107 0
-106 -107 0
-104 -108 0
-105 -108 0
-106 -108 0
-107 -108 0
-105 -106 0
-105 -107 0
-106 -107 0
-105 -108 0
-106 -108 0
-107 -108 0
-105 -109 0
-106 -109 0
-107 -109 0
-108 -109 0
-106 -107 0
-106 -108 0
-107 -108 0
-106 -109 0
-107 -109 0
-108 -109 0
-106 -110 0
-107 -110 0
-108 -110 0
-109 -110 0
-107 -108 0
-107 -109 0
-108 -109 0
-107 -110 0
-108 -110 0
-109 -110 0
-107 -111 0
-108 -111 0
-109 -111 0
-110 -111 0
-108 -109 0
-108 -110 0
-109 -110 0
-108 -111 0
-109 -111 0
-110 -111 0
-108 -112 0
-109 -112 0
-110 -112 0
-111 -112 0
-109 -110 0
-109 -111 0
-110 -111 0
-109 -112 0
-110 -112 0
-111 -112 0
-109 -113 0
-110 -113 0
-111 -113 0
-112 -113 0
-110 -111 0
-110 -112 0
-111 -112 0
-110 -113 0
-111 -113 0
-112 -113 0
-110 -114 0
-111 -114 0
-112 -114 0
-113 -114 0
-111 -112 0
-111 -113 0
-112 -113 0
-111 -114 0
-112 -114 0
-113 -114 0
-111 -115 0
-112 -115 0
-113 -115 0
-114 -115 0
-112 -113 0
-112 -114 0
-113 -114 0
-112 -115 0
-113 -115 0
-114 -115 0
-112 -116 0
-113 -116 0
-114 -116 0
-115 -116 0
-113 -114 0
-113 -115 0
-114 -115 0
-113 -116 0
-114 -116 0
-115 -116 0
-113 -117 0
-114 -117 0
-115 -117 0
-116 -117 0
-114 -115 0
-114 -116 0
-115 -116 0
-114 -117 0
-115 -117 0
-116 -117 0
-114 -118 0
-115 -118 0
-116 -118 0
-117 -118 0
-115 -116 0
-115 -117 0
-116 -117 0
-115 -118 0
-116 -118 0
-117 -118 0
-115 -119 0
-116 -119 0
-117 -119 0
-118 -119 0
-116 -117 0
-116 -118 0
-117 -118 0
-116 -119 0
-117 -119 0
-118 -119 0
-116 -120 0
-117 -120 0
-118 -120 0
-119 -120 0
-117 -118 0
-117 -119 0
-118 -119 0
-117 -120 0
-118 -120 0
-119 -120 0
-117 -121 0
-118 -121 0
-119 -121 0
-120 -121 0
-118 -119 0
-118 -120 0
-119 -120 0
-118 -121 0
-119 -121 0
-120 -121 0
-118 -122 0
-119 -122 0
-120 -122 0
-121 -122 0
-119 -120 0
-119 -121 0
-120 -121 0
-119 -122 0
-120 -122 0
-121 -122 0
-119 -123 0
-120 -123 0
-121 -123 0
-122 -123 0
-120 -121 0
-120 -122 0
-121 -122 0
-120 -123 0
-121 -123 0
-122 -123 0
-120 -124 0
-121 -124 0
-122 -124 0
-123 -124 0
-121 -122 0
-121 -123 0
-122 -123 0
-121 -124 0
-122 -124 0
-123 -124 0
-121 -125 0
-122 -125 0
-123 -125 0
-124 -125 0
-122 -123 0
-122 -124 0
-123 -124 0
-122 -125 0
-123 -125 0
-124 -125 0
-122 -126 0
-123 -126 0
-124 -126 0
-125 -126 0
-123 -124 0
-123 -125 0
-124 -125 0
-123 -126 0
-124 -126 0
-125 -126 0
-123 -127 0
-124 -127 0
-125 -127 0
-126 -127 0
-124 -125 0
-124 -126 0
-125 -126 0
-124 -127 0
-125 -127 0
-126 -127 0
-124 -128 0
-125 -128 0
-126 -128 0
-127 -128 0
-125 -126 0
-125 -127 0
-126 -127 0
-125 -128 0
-126 -128 0
-127 -128 0
-125 -129 0
-126 -129 0
-127 -129 0
-128 -129 0
-126 -127 0
-126 -128 0
-127 -128 0
-126 -129 0
-127 -129 0
-128 -129 0
-126 -130 0
-127 -130 0
-128 -130 0
-129 -130 0
-127 -128 0
-127 -129 0
-128 -129 0
-127 -130 0
-128 -130 0
-129 -130 0
-127 -131 0
-128 -131 0
-129 -131 0
-130 -131 0
-128 -129 0
-128 -130 0
-129 -130 0
-128 -131 0
-129 -131 0
-130 -131 0
-128 -132 0
-129 -132 0
-130 -132 0
-131 -132 0
-129 -130 0
-129 -131 0
-130 -131 0
-129 -132 0
-130 -132 0
-131 -132 0
-129 -133 0
-130 -133 0
-131 -133 0
-132 -133 0
-130 -131 0
-130 -132 0
-131 -132 0
-130 -133 0
-131 -133 0
-132 -133 0
-130 -134 0
-131 -134 0
-132 -134 0
-133 -134 0
-131 -132 0
-131 -133 0
-132 -133 0
-131 -134 0
-132 -134 0
-133 -134 0
-131 -135 0
-132 -135 0
-133 -135 0
-134 -135 0
-132 -133 0
-132 -134 0
-133 -134 0
-132 -135 0
-133 -135 0
-134 -135 0
-132 -136 0
-133 -136 0
-134 -136 0
-135 -136 0
-133 -134 0
-133 -135 0
-134 -135 0
-133 -136 0
-134 -136 0
-135 -136 0
-133 -137 0
-134 -137 0
-135 -137 0
-136 -137 0
-134 -135 0
-134 -136 0
-135 -136 0
-134 -137 0
-135 -137 0
-136 -137 0
-134 -138 0
-135 -138 0
-136 -138 0
-137 -138 0
-135 -136 0
-135 -137 0
-136 -137 0
-135 -138 0
-136 -138 0
-137 -138 0
-135 -139 0
-136 -139 0
-137 -139 0
-138 -139 0
-136 -137 0
-136 -138 0
-137 -138 0
-136 -139 0
-137 -139 0
-138 -139 0
-136 -140 0
-137 -140 0
-138 -140 0
-139 -140 0
-137 -138 0
-137 -139 0
-138 -139 0
-137 -140 0
-138 -140 0
-139 -140 0
-137 -141 0
-138 -141 0
-139 -141 0
-140 -141 0
-138 -139 0
-138 -140 0
-139 -140 0
-138 -141 0
-139 -141 0
-140 -141 0
-138 -142 0
-139 -142 0
-140 -142 0
-141 -142 0
-139 -140 0
-139 -141 0
-140 -141 0
-139 -142 0
-140 -142 0
-141 -142 0
-139 -143 0
-140 -143 0
-141 -143 0
-142 -143 0
-140 -141 0
-140 -142 0
-141 -142 0
-140 -143 0
-141 -143 0
-142 -143 0
-140 -144 0
-141 -144 0
-142 -144 0
-143 -144 0
-141 -142 0
-141 -143 0
-142 -143 0
-141 -144 0
-142 -144 0
-143 -144 0
-141 -145 0
-142 -145 0
-143 -145 0
-144 -145 0
-142 -143 0
-142 -144 0
-143 -144 0
-142 -145 0
-143 -145 0
-144 -145 0
-142 -146 0
-143 -146 0
-144 -146 0
-145 -146 0
-143 -144 0
-143 -145 0
-144 -145 0
-143 -146 0
-144 -146 0
-145 -146 0
-143 -147 0
-144 -147 0
-145 -147 0
-146 -147 0
-144 -145 0
-144 -146 0
-145 -146 0
-144 -147 0
-145 -147 0
-146 -147 0
-144 -148 0
-145 -148 0
-146 -148 0
-147 -148 0
-145 -146 0
-145 -147 0
-146 -147 0
-145 -148 0
-146 -148 0
-147 -148 0
-145 -149 0
-146 -149 0
-147 -149 0
-148 -149 0
-146 -147 0
-146 -148 0
-147 -148 0
-146 -149 0
-147 -149 0
-148 -149 0
-146 -150 0
-147 -150 0
-148 -150 0
-149 -150 0
-147 -148 0
-147 -149 0
-148 -149 0
-147 -150 0
-148 -150 0
-149 -150 0
-147 -151 0
-148 -151 0
-149 -151 0
-150 -151 0
-148 -149 0
-148 -150 0
-149 -150 0
-148 -151 0
-149 -151 0
-150 -151 0
-148 -152 0
-149 -152 0
-150 -152 0
-151 -152 0
-149 -150 0
-149 -151 0
-150 -151 0
-149 -152 0
-150 -152 0
-151 -152 0
-149 -153 0
-150 -153 0
-151 -153 0
-152 -153 0
-150 -151 0
-150 -152 0
-151 -152 0
-150 -153 0
-151 -153 0
-152 -153 0
-150 -154 0
-151 -154 0
-152 -154 0
-153 -154 0
-151 -152 0
-151 -153 0
-152 -153 0
-151 -154 0
-152 -154 0
-153 -154 0
-151 -155 0
-152 -155 0
-153 -155 0
-154 -155 0
-152 -153 0
-152 -154 0
-153 -154 0
-152 -155 0
-153 -155 0
-154 -155 0
-152 -156 0
-153 -156 0
-154 -156 0
-155 -156 0
-153 -154 0
-153 -155 0
-154 -155 0
-153 -156 0
-154 -156 0
-155 -156 0
-153 -157 0
-154 -157 0
-155 -157 0
-156 -157 0
-154 -155 0
-154 -156 0
-155 -156 0
-154 -157 0
-155 -157 0
-156 -157 0
-154 -158 0
-155 -158 0
-156 -158 0
-157 -158 0
-155 -156 0
-155 -157 0
-156 -157 0
-155 -158 0
-156 -158 0
-157 -158 0
-155 -159 0
-156 -159 0
-157 -159 0
-158 -159 0
-156 -157 0
-156 -158 0
-157 -158 0
-156 -159 0
-157 -159 0
-158 -159 0
-156 -160 0
-157 -160 0
-158 -160 0
-159 -160 0
-157 -158 0
-157 -159 0
-158 -159 0
-157 -160 0
-158 -160 0
-159 -160 0
-157 -161 0
-158 -161 0
-159 -161 0
-160 -161 0
-158 -159 0
-158 -160 0
-159 -160 0
-158 -161 0
-159 -161 0
-160 -161 0
-158 -162 0
-159 -162 0
-160 -162 0
-161 -162 0
-159 -160 0
-159 -161 0
-160 -161 0
-159 -162 0
-160 -162 0
-161 -162 0
-159 -163 0
-160 -163 0
-161 -163 0
-162 -163 0
-160 -161 0
-160 -162 0
-161 -162 0
-160 -163 0
-161 -163 0
-162 -163 0
-160 -164 0
-161 -164 0
-162 -164 0
-163 -164 0
-161 -162 0
-161 -163 0
-162 -163 0
-161 -164 0
-162 -164 0
-163 -164 0
-161 -165 0
-162 -165 0
-163 -165 0
-164 -165 0
-162 -163 0
-162 -164 0
-163 -164 0
-162 -165 0
-163 -165 0
-164 -165 0
-162 -166 0
-163 -166 0
-164 -166 0
-165 -166 0
-163 -164 0
-163 -165 0
-164 -165 0
-163 -166 0
-164 -166 0
-165 -166 0
-163 -167 0
-164 -167 0
-165 -167 0
-166 -167 0
-164 -165 0
-164 -166 0
-165 -166 0
-164 -167 0
-165 -167 0
-166 -167 0
-164 -168 0
-165 -168 0
-166 -168 0
-167 -168 0
-165 -166 0
-165 -167 0
-166 -167 0
-165 -168 0
-166 -168 0
-167 -168 0
-165 -169 0
-166 -169 0
-167 -169 0
-168 -169 0
-166 -167 0
-166 -168 0
-167 -168 0
-166 -169 0
-167 -169 0
-168 -169 0
-166 -170 0
-167 -170 0
-168 -170 0
-169 -170 0
-167 -168 0
-167 -169 0
-168 -169 0
-167 -170 0
-168 -170 0
-169 -170 0
-167 -171 0
-168 -171 0
-169 -171 0
-170 -171 0
-168 -169 0
-168 -170 0
-169 -170 0
-168 -171 0
-169 -171 0
-170 -171 0
-168 -172 0
-169 -172 0
-170 -172 0
-171 -172 0
-169 -170 0
-169 -171 0
-170 -171 0
-169 -172 0
-170 -172 0
-171 -172 0
-169 -173 0
-170 -173 0
-171 -173 0
-172 -173 0
-170 -171 0
-170 -172 0
-171 -172 0
-170 -173 0
-171 -173 0
-172 -173 0
-170 -174 0
-171 -174 0
-172 -174 0
-173 -174 0
-171 -172 0
-171 -173 0
-172 -173 0
-171 -174 0
-172 -174 0
-173 -174 0
-171 -175 0
-172 -175 0
-173 -175 0
-174 -175 0
-172 -173 0
-172 -174 0
-173 -174 0
-172 -175 0
-173 -175 0
-174 -175 0
-172 -176 0
-173 -176 0
-174 -176 0
-175 -176 0
-173 -174 0
-173 -175 0
-174 -175 0
-173 -176 0
-174 -176 0
-175 -176 0
-173 -177 0
-174 -177 0
-175 -177 0
-176 -177 0
-174 -175 0
-174 -176 0
-175 -176 0
-174 -177 0
-175 -177 0
-176 -177 0
-174 -178 0
-175 -178 0
-176 -178 0
-177 -178 0
-175 -176 0
-175 -177 0
-176 -177 0
-175 -178 0
-176 -178 0
-177 -178 0
-175 -179 0
-176 -179 0
-177 -179 0
-178 -179 0
-176 -177 0
-176 -178 0
-177 -178 0
-176 -179 0
-177 -179 0
-178 -179 0
-176 -180 0
-177 -180 0
-178 -180 0
-179 -180 0
-177 -178 0
-177 -179 0
-178 -179 0
-177 -180 0
-178 -180 0
-179 -180 0
-177 -181 0
-178 -181 0
-179 -181 0
-180 -181 0
-178 -179 0
-178 -180 0
-179 -180 0
-178 -181 0
-179 -181 0
-180 -181 0
-178 -182 0
-179 -182 0
-180 -182 0
-181 -182 0
-179 -180 0
-179 -181 0
-180 -181 0
-179 -182 0
-180 -182 0
-181 -182 0
-179 -183 0
-180 -183 0
-181 -183 0
-182 -183 0
-180 -181 0
-180 -182 0
-181 -182 0
-180 -183 0
-181 -183 0
-182 -183 0
-180 -184 0
-181 -184 0
-182 -184 0
-183 -184 0
-181 -182 0
-181 -183 0
-182 -183 0
-181 -184 0
-182 -184 0
-183 -184 0
-181 -185 0
-182 -185 0
-183 -185 0
-184 -185 0
-182 -183 0
-182 -184 0
-183 -184 0
-182 -185 0
-183 -185 0
-184 -185 0
-182 -186 0
-183 -186 0
-184 -186 0
-185 -186 0
-183 -184 0
-183 -185 0
-184 -185 0
-183 -186 0
-184 -186 0
-185 -186 0
-183 -187 0
-184 -187 0
-185 -187 0
-186 -187 0
-184 -185 0
-184 -186 0
-185 -186 0
-184 -187 0
-185 -187 0
-186 -187 0
-184 -188 0
-185 -188 0
-186 -188 0
-187 -188 0
-185 -186 0
-185 -187 0
-186 -187 0
-185 -188 0
-186 -188 0
-187 -188 0
-185 -189 0
-186 -189 0
-187 -189 0
-188 -189 0
-186 -187 0
-186 -188 0
-187 -188 0
-186 -189 0
-187 -189 0
-188 -189 0
-186 -190 0
-187 -190 0
-188 -190 0
-189 -190 0
-187 -188 0
-187 -189 0
-188 -189 0
-187 -190 0
-188 -190 0
-189 -190 0
-187 -191 0
-188 -191 0
-189 -191 0
-190 -191 0
-188 -189 0
-188 -190 0
-189 -190 0
-188 -191 0
-189 -191 0
-190 -191 0
-188 -192 0
-189 -192 0
-190 -192 0
-191 -192 0
-189 -190 0
-189 -191 0
-190 -191 0
-189 -192 0
-190 -192 0
-191 -192 0
-189 -193 0
-190 -193 0
-191 -193 0
-192 -193 0
-190 -191 0
-190 -192 0
-191 -192 0
-190 -193 0
-191 -193 0
-192 -193 0
-190 -194 0
-191 -194 0
-192 -194 0
-193 -194 0
-191 -192 0
-191 -193 0
-192 -193 0
-191 -194 0
-192 -194 0
-193 -194 0
-191 -195 0
-192 -195 0
-193 -195 0
-194 -195 0
-192 -193 0
-192 -194 0
-193 -194 0
-192 -195 0
-193 -195 0
-194 -195 0
-192 -196 0
-193 -196 0
-194 -196 0
-195 -196 0
-193 -194 0
-193 -195 0
-194 -195 0
-193 -196 0
-194 -196 0
-195 -196 0
-193 -197 0
-194 -197 0
-195 -197 0
-196 -197 0
-194 -195 0
-194 -196 0
-195 -196 0
-194 -197 0
-195 -197 0
-196 -197 0
-194 -198 0
-195 -198 0
-196 -198 0
-197 -198 0
-195 -196 0
-195 -197 0
-196 -197 0
-195 -198 0
-196 -198 0
-197 -198 0
-195 -199 0
-196 -199 0
-197 -199 0
-198 -199 0
-196 -197 0
-196 -198 0
-197 -198 0
-196 -199 0
-197 -199 0
-198 -199 0
-196 -200 0
-197 -200 0
-198 -200 0
-199 -200 0
-5 203 0
-4 203 0
-203 5 4 0
-203 202 0
-3 202 0
-202 203 3 0
-202 201 0
-2 201 0
-201 202 2 0
-10 206 0
-9 206 0
-206 10 9 0
-206 205 0
-8 205 0
-205 206 8 0
-205 204 0
-7 204 0
-204 205 7 0
-15 209 0
-14 209 0
-209 15 14 0
-209 208 0
-13 208 0
-208 209 13 0
-208 207 0
-12 207 0
-207 208 12 0
-20 212 0
-19 212 0
-212 20 19 0
-212 211 0
-18 211 0
-211 212 18 0
-211 210 0
-17 210 0
-210 211 17 0
-25 215 0
-24 215 0
-215 25 24 0
-215 214 0
-23 214 0
-214 215 23 0
-214 213 0
-22 213 0
-213 214 22 0
-30 218 0
-29 218 0
-218 30 29 0
-218 217 0
-28 217 0
-217 218 28 0
-217 216 0
-27 216 0
-216 217 27 0
-35 221 0
-34 221 0
-221 35 34 0
-221 220 0
-33 220 0
-220 221 33 0
-220 219 0
-32 219 0
-219 220 32 0
-40 224 0
-39 224 0
-224 40 39 0
-224 223 0
-38 223 0
-223 224 38 0
-223 222 0
-37 222 0
-222 223 37 0
-45 227 0
-44 227 0
-227 45 44 0
-227 226 0
-43 226 0
-226 227 43 0
-226 225 0
-42 225 0
-225 226 42 0
-50 230 0
-49 230 0
-230 50 49 0
-230 229 0
-48 229 0
-229 230 48 0
-229 228 0
-47 228 0
-228 229 47 0
-55 233 0
-54 233 0
-233 55 54 0
-233 232 0
-53 232 0
-232 233 53 0
-232 231 0
-52 231 0
-231 232 52 0
-60 236 0
-59 236 0
-236 60 59 0
-236 235 0
-58 235 0
-235 236 58 0
-235 234 0
-57 234 0
-234 235 57 0
-65 239 0
-64 239 0
-239 65 64 0
-239 238 0
-63 238 0
-238 239 63 0
-238 237 0
-62 237 0
-237 238 62 0
-70 242 0
-69 242 0
-242 70 69 0
-242 241 0
-68 241 0
-241 242 68 0
-241 240 0
-67 240 0
-240 241 67 0
-75 245 0
-74 245 0
-245 75 74 0
-245 244 0
-73 244 0
-244 245 73 0
-244 243 0
-72 243 0
-243 244 72 0
-80 248 0
-79 248 0
-248 80 79 0
-248 247 0
-78 247 0
-247 248 78 0
-247 246 0
-77 246 0
-246 247 77 0
-85 251 0
-84 251 0
-251 85 84 0
-251 250 0
-83 250 0
-250 251 83 0
-250 249 0
-82 249 0
-249 250 82 0
-90 254 0
-89 254 0
-254 90 89 0
-254 253 0
-88 253 0
-253 254 88 0
-253 252 0
-87 252 0
-252 253 87 0
-95 257 0
-94 257 0
-257 95 94 0
-257 256 0
-93 256 0
-256 257 93 0
-256 255 0
-92 255 0
-255 256 92 0
-100 260 0
-99 260 0
-260 100 99 0
-260 259 0
-98 259 0
-259 260 98 0
-259 258 0
-97 258 0
-258 259 97 0
-105 263 0
-104 263 0
-263 105 104 0
-263 262 0
-103 262 0
-262 263 103 0
-262 261 0
-102 261 0
-261 262 102 0
-110 266 0
-109 266 0
-266 110 109 0
-266 265 0
-108 265 0
-265 266 108 0
-265 264 0
-107 264 0
-264 265 107 0
-115 269 0
-114 269 0
-269 115 114 0
-269 268 0
-113 268 0
-268 269 113 0
-268 267 0
-112 267 0
-267 268 112 0
-120 272 0
-119 272 0
-272 120 119 0
-272 271 0
-118 271 0
-271 272 118 0
-271 270 0
-117 270 0
-270 271 117 0
-125 275 0
-124 275 0
-275 125 124 0
-275 274 0
-123 274 0
-274 275 123 0
-274 273 0
-122 273 0
-273 274 122 0
-130 278 0
-129 278 0
-278 130 129 0
-278 277 0
-128 277 0
-277 278 128 0
-277 276 0
-127 276 0
-276 277 127 0
-135 281 0
-134 281 0
-281 135 134 0
-281 280 0
-133 280 0
-280 281 133 0
-280 279 0
-132 279 0
-279 280 132 0
-140 284 0
-139 284 0
-284 140 139 0
-284 283 0
-138 283 0
-283 284 138 0
-283 282 0
-137 282 0
-282 283 137 0
-145 287 0
-144 287 0
-287 145 144 0
-287 286 0
-143 286 0
-286 287 143 0
-286 285 0
-142 285 0
-285 286 142 0
-150 290 0
-149 290 0
-290 150 149 0
-290 289 0
-148 289 0
-289 290 148 0
-289 288 0
-147 288 0
-288 289 147 0
-155 293 0
-154 293 0
-293 155 154 0
-293 292 0
-153 292 0
-292 293 153 0
-292 291 0
-152 291 0
-291 292 152 0
-160 296 0
-159 296 0
-296 160 159 0
-296 295 0
-158 295 0
-295 296 158 0
-295 294 0
-157 294 0
-294 295 157 0
-165 299 0
-164 299 0
-299 165 164 0
-299 298 0
-163 298 0
-298 299 163 0
-298 297 0
-162 297 0
-297 298 162 0
-170 302 0
-169 302 0
-302 170 169 0
-302 301 0
-168 301 0
-301 302 168 0
-301 300 0
-167 300 0
-300 301 167 0
-175 305 0
-174 305 0
-305 175 174 0
-305 304 0
-173 304 0
-304 305 173 0
-304 303 0
-172 303 0
-303 304 172 0
-180 308 0
-179 308 0
-308 180 179 0
-308 307 0
-178 307 0
-307 308 178 0
-307 306 0
-177 306 0
-306 307 177 0
-185 311 0
-184 311 0
-311 185 184 0
-311 310 0
-183 310 0
-310 311 183 0
-310 309 0
-182 309 0
-309 310 182 0
-190 314 0
-189 314 0
-314 190 189 0
-314 313 0
-188 313 0
-313 314 188 0
-313 312 0
-187 312 0
-312 313 187 0
-195 317 0
-194 317 0
-317 195 194 0
-317 316 0
-193 316 0
-316 317 193 0
-316 315 0
-192 315 0
-315 316 192 0
-6 318 0
-7 318 0
-318 6 7 0
-318 319 0
-8 319 0
-319 318 8 0
-319 320 0
-9 320 0
-320 319 9 0
-11 321 0
-12 321 0
-321 11 12 0
-321 322 0
-13 322 0
-322 321 13 0
-322 323 0
-14 323 0
-323 322 14 0
-16 324 0
-17 324 0
-324 16 17 0
-324 325 0
-18 325 0
-325 324 18 0
-325 326 0
-19 326 0
-326 325 19 0
-21 327 0
-22 327 0
-327 21 22 0
-327 328 0
-23 328 0
-328 327 23 0
-328 329 0
-24 329 0
-329 328 24 0
-26 330 0
-27 330 0
-330 26 27 0
-330 331 0
-28 331 0
-331 330 28 0
-331 332 0
-29 332 0
-332 331 29 0
-31 333 0
-32 333 0
-333 31 32 0
-333 334 0
-33 334 0
-334 333 33 0
-334 335 0
-34 335 0
-335 334 34 0
-36 336 0
-37 336 0
-336 36 37 0
-336 337 0
-38 337 0
-337 336 38 0
-337 338 0
-39 338 0
-338 337 39 0
-41 339 0
-42 339 0
-339 41 42 0
-339 340 0
-43 340 0
-340 339 43 0
-340 341 0
-44 341 0
-341 340 44 0
-46 342 0
-47 342 0
-342 46 47 0
-342 343 0
-48 343 0
-343 342 48 0
-343 344 0
-49 344 0
-344 343 49 0
-51 345 0
-52 345 0
-345 51 52 0
-345 346 0
-53 346 0
-346 345 53 0
-346 347 0
-54 347 0
-347 346 54 0
-56 348 0
-57 348 0
-348 56 57 0
-348 349 0
-58 349 0
-349 348 58 0
-349 350 0
-59 350 0
-350 349 59 0
-61 351 0
-62 351 0
-351 61 62 0
-351 352 0
-63 352 0
-352 351 63 0
-352 353 0
-64 353 0
-353 352 64 0
-66 354 0
-67 354 0
-354 66 67 0
-354 355 0
-68 355 0
-355 354 68 0
-355 356 0
-69 356 0
-356 355 69 0
-71 357 0
-72 357 0
-357 71 72 0
-357 358 0
-73 358 0
-358 357 73 0
-358 359 0
-74 359 0
-359 358 74 0
-76 360 0
-77 360 0
-360 76 77 0
-360 361 0
-78 361 0
-361 360 78 0
-361 362 0
-79 362 0
-362 361 79 0
-81 363 0
-82 363 0
-363 81 82 0
-363 364 0
-83 364 0
-364 363 83 0
-364 365 0
-84 365 0
-365 364 84 0
-86 366 0
-87 366 0
-366 86 87 0
-366 367 0
-88 367 0
-367 366 88 0
-367 368 0
-89 368 0
-368 367 89 0
-91 369 0
-92 369 0
-369 91 92 0
-369 370 0
-93 370 0
-370 369 93 0
-370 371 0
-94 371 0
-371 370 94 0
-96 372 0
-97 372 0
-372 96 97 0
-372 373 0
-98 373 0
-373 372 98 0
-373 374 0
-99 374 0
-374 373 99 0
-101 375 0
-102 375 0
-375 101 102 0
-375 376 0
-103 376 0
-376 375 103 0
-376 377 0
-104 377 0
-377 376 104 0
-106 378 0
-107 378 0
-378 106 107 0
-378 379 0
-108 379 0
-379 378 108 0
-379 380 0
-109 380 0
-380 379 109 0
-111 381 0
-112 381 0
-381 111 112 0
-381 382 0
-113 382 0
-382 381 113 0
-382 383 0
-114 383 0
-383 382 114 0
-116 384 0
-117 384 0
-384 116 117 0
-384 385 0
-118 385 0
-385 384 118 0
-385 386 0
-119 386 0
-386 385 119 0
-121 387 0
-122 387 0
-387 121 122 0
-387 388 0
-123 388 0
-388 387 123 0
-388 389 0
-124 389 0
-389 388 124 0
-126 390 0
-127 390 0
-390 126 127 0
-390 391 0
-128 391 0
-391 390 128 0
-391 392 0
-129 392 0
-392 391 129 0
-131 393 0
-132 393 0
-393 131 132 0
-393 394 0
-133 394 0
-394 393 133 0
-394 395 0
-134 395 0
-395 394 134 0
-136 396 0
-137 396 0
-396 136 137 0
-396 397 0
-138 397 0
-397 396 138 0
-397 398 0
-139 398 0
-398 397 139 0
-141 399 0
-142 399 0
-399 141 142 0
-399 400 0
-143 400 0
-400 399 143 0
-400 401 0
-144 401 0
-401 400 144 0
-146 402 0
-147 402 0
-402 146 147 0
-402 403 0
-148 403 0
-403 402 148 0
-403 404 0
-149 404 0
-404 403 149 0
-151 405 0
-152 405 0
-405 151 152 0
-405 406 0
-153 406 0
-406 405 153 0
-406 407 0
-154 407 0
-407 406 154 0
-156 408 0
-157 408 0
-408 156 157 0
-408 409 0
-158 409 0
-409 408 158 0
-409 410 0
-159 410 0
-410 409 159 0
-161 411 0
-162 411 0
-411 161 162 0
-411 412 0
-163 412 0
-412 411 163 0
-412 413 0
-164 413 0
-413 412 164 0
-166 414 0
-167 414 0
-414 166 167 0
-414 415 0
-168 415 0
-415 414 168 0
-415 416 0
-169 416 0
-416 415 169 0
-171 417 0
-172 417 0
-417 171 172 0
-417 418 0
-173 418 0
-418 417 173 0
-418 419 0
-174 419 0
-419 418 174 0
-176 420 0
-177 420 0
-420 176 177 0
-420 421 0
-178 421 0
-421 420 178 0
-421 422 0
-179 422 0
-422 421 179 0
-181 423 0
-182 423 0
-423 181 182 0
-423 424 0
-183 424 0
-424 423 183 0
-424 425 0
-184 425 0
-425 424 184 0
-186 426 0
-187 426 0
-426 186 187 0
-426 427 0
-188 427 0
-427 426 188 0
-427 428 0
-189 428 0
-428 427 189 0
-191 429 0
-192 429 0
-429 191 192 0
-429 430 0
-193 430 0
-430 429 193 0
-430 431 0
-194 431 0
-431 430 194 0
-196 432 0
-197 432 0
-432 196 197 0
-432 433 0
-198 433 0
-433 432 198 0
-433 434 0
-199 434 0
-434 433 199 0
1 201 0
201 6 0
202 318 0
203 319 0
5 320 0
6 204 320 0
204 11 0
205 321 0
206 322 0
10 323 0
11 207 323 0
207 16 0
208 324 0
209 325 0
15 326 0
16 210 326 0
210 21 0
211 327 0
212 328 0
20 329 0
21 213 329 0
213 26 0
214 330 0
215 331 0
25 332 0
26 216 332 0
216 31 0
217 333 0
218 334 0
30 335 0
31 219 335 0
219 36 0
220 336 0
221 337 0
35 338 0
36 222 338 0
222 41 0
223 339 0
224 340 0
40 341 0
41 225 341 0
225 46 0
226 342 0
227 343 0
45 344 0
46 228 344 0
228 51 0
229 345 0
230 346 0
50 347 0
51 231 347 0
231 56 0
232 348 0
233 349 0
55 350 0
56 234 350 0
234 61 0
235 351 0
236 352 0
60 353 0
61 237 353 0
237 66 0
238 354 0
239 355 0
65 356 0
66 240 356 0
240 71 0
241 357 0
242 358 0
70 359 0
71 243 359 0
243 76 0
244 360 0
245 361 0
75 362 0
76 246 362 0
246 81 0
247 363 0
248 364 0
80 365 0
81 249 365 0
249 86 0
250 366 0
251 367 0
85 368 0
86 252 368 0
252 91 0
253 369 0
254 370 0
90 371 0
91 255 371 0
255 96 0
256 372 0
257 373 0
95 374 0
96 258 374 0
258 101 0
259 375 0
260 376 0
100 377 0
101 261 377 0
261 106 0
262 378 0
263 379 0
105 380 0
106 264 380 0
264 111 0
265 381 0
266 382 0
110 383 0
111 267 383 0
267 116 0
268 384 0
269 385 0
115 386 0
116 270 386 0
270 121 0
271 387 0
272 388 0
120 389 0
121 273 389 0
273 126 0
274 390 0
275 391 0
125 392 0
126 276 392 0
276 131 0
277 393 0
278 394 0
130 395 0
131 279 395 0
279 136 0
280 396 0
281 397 0
135 398 0
136 282 398 0
282 141 0
283 399 0
284 400 0
140 401 0
141 285 401 0
285 146 0
286 402 0
287 403 0
145 404 0
146 288 404 0
288 151 0
289 405 0
290 406 0
150 407 0
151 291 407 0
291 156 0
292 408 0
293 409 0
155 410 0
156 294 410 0
294 161 0
295 411 0
296 412 0
160 413 0
161 297 413 0
297 166 0
298 414 0
299 415 0
165 416 0
166 300 416 0
300 171 0
301 417 0
302 418 0
170 419 0
171 303 419 0
303 176 0
304 420 0
305 421 0
175 422 0
176 306 422 0
306 181 0
307 423 0
308 424 0
180 425 0
181 309 425 0
309 186 0
310 426 0
311 427 0
185 428 0
186 312 428 0
312 191 0
313 429 0
314 430 0
190 431 0
191 315 431 0
315 196 0
316 432 0
317 433 0
195 434 0
196 434 0
